w = 31;
n = 19;
measures = [|12, 31,
|3, 31,
|3, 22,
|4, 13,
|3, 14,
|3, 13,
|3, 12,
|3, 11,
|4, 8,
|3, 10,
|4, 7,
|3, 9,
|3, 8,
|3, 7,
|3, 6,
|3, 5,
|3, 4,
|4, 3,
|3, 3,
|];
initial_x = [0, 12, 15, 18, 22, 25, 28, 0, 3, 7, 10, 14, 17, 20, 23, 26, 0, 3, 7];
initial_y = [0, 0, 0, 0, 0, 0, 0, 31, 31, 31, 31, 31, 31, 31, 31, 31, 42, 42, 42];